\ENCODING=ISO-8859-1
\Problem name: ILOG.CPLEX

Minimize
 obj: gamma_1_5_0 + gamma_1_5_1 + gamma_1_5_2 + gamma_1_4_0 + gamma_1_4_1
      + gamma_1_4_2 + gamma_1_3_0 + gamma_1_3_1 + gamma_1_3_2 + gamma_1_2_0
      + gamma_1_2_1 + gamma_1_2_2 + gamma_1_1_0 + gamma_1_1_1 + gamma_1_1_2
      + gamma_1_0_0 + gamma_1_0_1 + gamma_1_0_2 + gamma_0_1_0 + gamma_0_1_1
      + gamma_0_0_0 + gamma_0_0_1 + gamma_2_5_0 + gamma_2_5_1 + gamma_2_5_2
      + gamma_2_4_0 + gamma_2_4_1 + gamma_2_4_2 + gamma_2_3_0 + gamma_2_3_1
      + gamma_2_3_2 + gamma_2_2_0 + gamma_2_2_1 + gamma_2_2_2 + gamma_2_1_0
      + gamma_2_1_1 + gamma_2_1_2 + gamma_2_0_0 + gamma_2_0_1 + gamma_2_0_2
      + 0.05 a_0 + 0.05 a_1 + 0.05 a_2 + 0.05 a_3 + 0.05 a_4
Subject To
 C1_0#0:          s_1_5 + s_1_4 + s_1_3 + s_1_2 + s_1_1 + s_1_0  = 1
 C1_1#1:          s_0_1 + s_0_0  = 1
 C1_2#2:          s_2_5 + s_2_4 + s_2_3 + s_2_2 + s_2_1 + s_2_0  = 1
 _2_0_0_0_0#3:    6.751 gamma_1_5_0 - 6.751 s_1_5 - 3 g_1 - 3 g_2 + 0.75 g_3
                  >= -6.75
 _2_0_0_0_2#4:    8.101 gamma_1_5_0 - 8.101 s_1_5 + g_0 - 1.5 g_1 - 4 g_2
                  + 0.6 g_3 - g_4 >= -8.1
 _2_0_0_0_4#5:    9.06766666666667 gamma_1_5_0 - 9.06766666666667 s_1_5 + 2 g_0
                  - 0.666666666666667 g_1 - 4 g_2 + 0.4 g_3 - 2 g_4
                  >= -9.06666666666667
 _2_0_0_0_7#6:    5.83433333333333 gamma_1_5_0 - 5.83433333333333 s_1_5 + 2 g_0
                  + 0.333333333333333 g_1 - g_2 - 0.5 g_3 - 2 g_4
                  >= -5.83333333333333
 _2_0_0_1_0#7:    4.651 gamma_1_5_1 - 4.651 s_1_5 - g_0 - 1.5 g_1 + g_2
                  + 0.15 g_3 + g_4 >= -4.65
 _2_0_0_1_3#8:    3.03433333333333 gamma_1_5_1 - 3.03433333333333 s_1_5 + g_0
                  + 0.833333333333333 g_1 - 0.2 g_3 - g_4 >= -3.03333333333333
 _2_0_0_1_5#9:    7.93433333333333 gamma_1_5_1 - 7.93433333333333 s_1_5 + g_0
                  + 1.83333333333333 g_1 + 3 g_2 - 1.1 g_3 - g_4
                  >= -7.93333333333333
 _2_0_1_0_0#10:   6.751 gamma_1_4_0 - 6.751 s_1_4 - 3 g_1 - 3 g_2 + 0.75 g_3
                  >= -6.75
 _2_0_1_0_2#11:   8.101 gamma_1_4_0 - 8.101 s_1_4 + g_0 - 1.5 g_1 - 4 g_2
                  + 0.6 g_3 - g_4 >= -8.1
 _2_0_1_0_4#12:   9.06766666666667 gamma_1_4_0 - 9.06766666666667 s_1_4 + 2 g_0
                  - 0.666666666666667 g_1 - 4 g_2 + 0.4 g_3 - 2 g_4
                  >= -9.06666666666667
 _2_0_1_0_7#13:   5.83433333333333 gamma_1_4_0 - 5.83433333333333 s_1_4 + 2 g_0
                  + 0.333333333333333 g_1 - g_2 - 0.5 g_3 - 2 g_4
                  >= -5.83333333333333
 _2_0_1_1_1#14:   4.651 gamma_1_4_1 - 4.651 s_1_4 + g_0 + 1.5 g_1 - g_2
                  - 0.15 g_3 - g_4 >= -4.65
 _2_0_1_1_3#15:   7.68433333333333 gamma_1_4_1 - 7.68433333333333 s_1_4 + 2 g_0
                  + 2.33333333333333 g_1 - g_2 - 0.35 g_3 - 2 g_4
                  >= -7.68333333333333
 _2_0_1_1_5#16:   10.5843333333333 gamma_1_4_1 - 10.5843333333333 s_1_4 + 2 g_0
                  + 3.33333333333333 g_1 + 2 g_2 - 1.25 g_3 - 2 g_4
                  >= -10.5833333333333
 _2_0_2_0_0#17:   4.651 gamma_1_3_0 - 4.651 s_1_3 - g_0 - 1.5 g_1 + g_2
                  + 0.15 g_3 + g_4 >= -4.65
 _2_0_2_0_3#18:   3.03433333333333 gamma_1_3_0 - 3.03433333333333 s_1_3 + g_0
                  + 0.833333333333333 g_1 - 0.2 g_3 - g_4 >= -3.03333333333333
 _2_0_2_0_5#19:   8.101 gamma_1_3_0 - 8.101 s_1_3 - g_0 + 1.5 g_1 + 4 g_2
                  - 0.6 g_3 + g_4 >= -8.1
 _2_0_2_0_7#20:   7.93433333333333 gamma_1_3_0 - 7.93433333333333 s_1_3 + g_0
                  + 1.83333333333333 g_1 + 3 g_2 - 1.1 g_3 - g_4
                  >= -7.93333333333333
 _2_0_2_1_0#21:   6.751 gamma_1_3_1 - 6.751 s_1_3 - 3 g_1 - 3 g_2 + 0.75 g_3
                  >= -6.75
 _2_0_3_0_0#22:   4.651 gamma_1_2_0 - 4.651 s_1_2 - g_0 - 1.5 g_1 + g_2
                  + 0.15 g_3 + g_4 >= -4.65
 _2_0_3_0_3#23:   3.03433333333333 gamma_1_2_0 - 3.03433333333333 s_1_2 + g_0
                  + 0.833333333333333 g_1 - 0.2 g_3 - g_4 >= -3.03333333333333
 _2_0_3_0_5#24:   8.101 gamma_1_2_0 - 8.101 s_1_2 - g_0 + 1.5 g_1 + 4 g_2
                  - 0.6 g_3 + g_4 >= -8.1
 _2_0_3_0_7#25:   7.93433333333333 gamma_1_2_0 - 7.93433333333333 s_1_2 + g_0
                  + 1.83333333333333 g_1 + 3 g_2 - 1.1 g_3 - g_4
                  >= -7.93333333333333
 _2_0_3_1_1#26:   6.751 gamma_1_2_1 - 6.751 s_1_2 + 3 g_1 + 3 g_2 - 0.75 g_3
                  >= -6.75
 _2_0_4_0_1#27:   4.651 gamma_1_1_0 - 4.651 s_1_1 + g_0 + 1.5 g_1 - g_2
                  - 0.15 g_3 - g_4 >= -4.65
 _2_0_4_0_3#28:   7.68433333333333 gamma_1_1_0 - 7.68433333333333 s_1_1 + 2 g_0
                  + 2.33333333333333 g_1 - g_2 - 0.35 g_3 - 2 g_4
                  >= -7.68333333333333
 _2_0_4_0_5#29:   6.751 gamma_1_1_0 - 6.751 s_1_1 + 3 g_1 + 3 g_2 - 0.75 g_3
                  >= -6.75
 _2_0_4_0_7#30:   10.5843333333333 gamma_1_1_0 - 10.5843333333333 s_1_1 + 2 g_0
                  + 3.33333333333333 g_1 + 2 g_2 - 1.25 g_3 - 2 g_4
                  >= -10.5833333333333
 _2_0_4_1_0#31:   8.101 gamma_1_1_1 - 8.101 s_1_1 + g_0 - 1.5 g_1 - 4 g_2
                  + 0.6 g_3 - g_4 >= -8.1
 _2_0_4_1_2#32:   9.06766666666667 gamma_1_1_1 - 9.06766666666667 s_1_1 + 2 g_0
                  - 0.666666666666667 g_1 - 4 g_2 + 0.4 g_3 - 2 g_4
                  >= -9.06666666666667
 _2_0_4_1_5#33:   5.83433333333333 gamma_1_1_1 - 5.83433333333333 s_1_1 + 2 g_0
                  + 0.333333333333333 g_1 - g_2 - 0.5 g_3 - 2 g_4
                  >= -5.83333333333333
 _2_0_5_0_1#34:   4.651 gamma_1_0_0 - 4.651 s_1_0 + g_0 + 1.5 g_1 - g_2
                  - 0.15 g_3 - g_4 >= -4.65
 _2_0_5_0_3#35:   7.68433333333333 gamma_1_0_0 - 7.68433333333333 s_1_0 + 2 g_0
                  + 2.33333333333333 g_1 - g_2 - 0.35 g_3 - 2 g_4
                  >= -7.68333333333333
 _2_0_5_0_5#36:   6.751 gamma_1_0_0 - 6.751 s_1_0 + 3 g_1 + 3 g_2 - 0.75 g_3
                  >= -6.75
 _2_0_5_0_7#37:   10.5843333333333 gamma_1_0_0 - 10.5843333333333 s_1_0 + 2 g_0
                  + 3.33333333333333 g_1 + 2 g_2 - 1.25 g_3 - 2 g_4
                  >= -10.5833333333333
 _2_0_5_1_1#38:   3.03433333333333 gamma_1_0_1 - 3.03433333333333 s_1_0 + g_0
                  + 0.833333333333333 g_1 - 0.2 g_3 - g_4 >= -3.03333333333333
 _2_0_5_1_3#39:   8.101 gamma_1_0_1 - 8.101 s_1_0 - g_0 + 1.5 g_1 + 4 g_2
                  - 0.6 g_3 + g_4 >= -8.1
 _2_0_5_1_5#40:   7.93433333333333 gamma_1_0_1 - 7.93433333333333 s_1_0 + g_0
                  + 1.83333333333333 g_1 + 3 g_2 - 1.1 g_3 - g_4
                  >= -7.93333333333333
 _2_1_0_0_0#41:   4.58433333333333 gamma_0_1_0 - 4.58433333333333 s_0_1 + g_0
                  - 0.333333333333333 g_1 - 2 g_2 + 0.25 g_3 - g_4
                  >= -4.58333333333333
 _2_1_0_0_3#42:   9.001 gamma_0_1_0 - 9.001 s_0_1 + 3 g_0 - 3 g_2 - 3 g_4 >= -9
 _2_1_0_0_5#43:   2.83433333333333 gamma_0_1_0 - 2.83433333333333 s_0_1 + g_0
                  + 0.333333333333333 g_1 - 0.5 g_3 - g_4 >= -2.83333333333333
 _2_1_0_1_1#44:   3.41766666666667 gamma_0_1_1 - 3.41766666666667 s_0_1
                  + 0.666666666666667 g_1 + 2 g_2 - 0.75 g_3
                  >= -3.41666666666667
 _2_1_1_0_1#45:   4.58433333333333 gamma_0_0_0 - 4.58433333333333 s_0_0 - g_0
                  + 0.333333333333333 g_1 + 2 g_2 - 0.25 g_3 + g_4
                  >= -4.58333333333333
 _2_1_1_0_3#46:   5.58433333333333 gamma_0_0_0 - 5.58433333333333 s_0_0 + 2 g_0
                  + 0.333333333333333 g_1 - g_2 - 0.25 g_3 - 2 g_4
                  >= -5.58333333333333
 _2_1_1_0_5#47:   3.41766666666667 gamma_0_0_0 - 3.41766666666667 s_0_0
                  + 0.666666666666667 g_1 + 2 g_2 - 0.75 g_3
                  >= -3.41666666666667
 _2_2_0_0_0#48:   5.501 gamma_2_5_0 - 5.501 s_2_5 + 2 g_0 + 0.5 g_1 - g_3
                  - 2 g_4 >= -5.5
 _2_2_0_0_2#49:   12.976 gamma_2_5_0 - 12.976 s_2_5 + 3 g_0 - 0.6 g_1 - 6 g_2
                  + 0.375 g_3 - 3 g_4 >= -12.975
 _2_2_0_0_4#50:   5.58433333333333 gamma_2_5_0 - 5.58433333333333 s_2_5 + 2 g_0
                  + 0.25 g_1 - g_2 - 0.333333333333333 g_3 - 2 g_4
                  >= -5.58333333333333
 _2_2_0_0_6#51:   8.751 gamma_2_5_0 - 8.751 s_2_5 + 2 g_0 + 0.75 g_1 + g_2
                  - 3 g_3 - 2 g_4 >= -8.75
 _2_2_0_0_8#52:   7.501 gamma_2_5_0 - 7.501 s_2_5 + g_0 - g_1 - 4 g_2 + 0.5 g_3
                  - g_4 >= -7.5
 _2_2_0_0_11#53:  5.58433333333333 gamma_2_5_0 - 5.58433333333333 s_2_5 + 2 g_0
                  + 0.25 g_1 - g_2 - 0.333333333333333 g_3 - 2 g_4
                  >= -5.58333333333333
 _2_2_0_1_0#54:   9.001 gamma_2_5_1 - 9.001 s_2_5 + g_0 + 1.5 g_1 + 4 g_2
                  - 1.5 g_3 - g_4 >= -9
 _2_2_0_1_2#55:   6.526 gamma_2_5_1 - 6.526 s_2_5 + 2 g_0 + 0.4 g_1 - 2 g_2
                  - 0.125 g_3 - 2 g_4 >= -6.525
 _2_2_0_1_4#56:   7.08433333333333 gamma_2_5_1 - 7.08433333333333 s_2_5 + g_0
                  + 1.25 g_1 + 3 g_2 - 0.833333333333333 g_3 - g_4
                  >= -7.08333333333333
 _2_2_0_1_6#57:   12.251 gamma_2_5_1 - 12.251 s_2_5 + g_0 + 1.75 g_1 + 5 g_2
                  - 3.5 g_3 - g_4 >= -12.25
 _2_2_0_1_9#58:   7.08433333333333 gamma_2_5_1 - 7.08433333333333 s_2_5 + g_0
                  + 1.25 g_1 + 3 g_2 - 0.833333333333333 g_3 - g_4
                  >= -7.08333333333333
 _2_2_0_2_0#59:   10.476 gamma_2_5_2 - 10.476 s_2_5 - g_0 + 1.1 g_1 + 6 g_2
                  - 1.375 g_3 + g_4 >= -10.475
 _2_2_0_2_3#60:   8.55933333333333 gamma_2_5_2 - 8.55933333333333 s_2_5 - g_0
                  + 0.85 g_1 + 5 g_2 - 0.708333333333333 g_3 + g_4
                  >= -8.55833333333333
 _2_2_0_2_5#61:   13.726 gamma_2_5_2 - 13.726 s_2_5 - g_0 + 1.35 g_1 + 7 g_2
                  - 3.375 g_3 + g_4 >= -13.725
 _2_2_0_2_7#62:   8.55933333333333 gamma_2_5_2 - 8.55933333333333 s_2_5 - g_0
                  + 0.85 g_1 + 5 g_2 - 0.708333333333333 g_3 + g_4
                  >= -8.55833333333333
 _2_2_1_0_0#63:   5.501 gamma_2_4_0 - 5.501 s_2_4 + 2 g_0 + 0.5 g_1 - g_3
                  - 2 g_4 >= -5.5
 _2_2_1_0_2#64:   12.976 gamma_2_4_0 - 12.976 s_2_4 + 3 g_0 - 0.6 g_1 - 6 g_2
                  + 0.375 g_3 - 3 g_4 >= -12.975
 _2_2_1_0_4#65:   5.58433333333333 gamma_2_4_0 - 5.58433333333333 s_2_4 + 2 g_0
                  + 0.25 g_1 - g_2 - 0.333333333333333 g_3 - 2 g_4
                  >= -5.58333333333333
 _2_2_1_0_6#66:   8.751 gamma_2_4_0 - 8.751 s_2_4 + 2 g_0 + 0.75 g_1 + g_2
                  - 3 g_3 - 2 g_4 >= -8.75
 _2_2_1_0_8#67:   7.501 gamma_2_4_0 - 7.501 s_2_4 + g_0 - g_1 - 4 g_2 + 0.5 g_3
                  - g_4 >= -7.5
 _2_2_1_0_11#68:  5.58433333333333 gamma_2_4_0 - 5.58433333333333 s_2_4 + 2 g_0
                  + 0.25 g_1 - g_2 - 0.333333333333333 g_3 - 2 g_4
                  >= -5.58333333333333
 _2_2_1_1_0#69:   10.476 gamma_2_4_1 - 10.476 s_2_4 - g_0 + 1.1 g_1 + 6 g_2
                  - 1.375 g_3 + g_4 >= -10.475
 _2_2_1_1_3#70:   8.55933333333333 gamma_2_4_1 - 8.55933333333333 s_2_4 - g_0
                  + 0.85 g_1 + 5 g_2 - 0.708333333333333 g_3 + g_4
                  >= -8.55833333333333
 _2_2_1_1_5#71:   13.726 gamma_2_4_1 - 13.726 s_2_4 - g_0 + 1.35 g_1 + 7 g_2
                  - 3.375 g_3 + g_4 >= -13.725
 _2_2_1_1_7#72:   6.526 gamma_2_4_1 - 6.526 s_2_4 - 2 g_0 - 0.4 g_1 + 2 g_2
                  + 0.125 g_3 + 2 g_4 >= -6.525
 _2_2_1_1_9#73:   8.55933333333333 gamma_2_4_1 - 8.55933333333333 s_2_4 - g_0
                  + 0.85 g_1 + 5 g_2 - 0.708333333333333 g_3 + g_4
                  >= -8.55833333333333
 _2_2_2_0_0#74:   9.001 gamma_2_3_0 - 9.001 s_2_3 + g_0 + 1.5 g_1 + 4 g_2
                  - 1.5 g_3 - g_4 >= -9
 _2_2_2_0_2#75:   6.526 gamma_2_3_0 - 6.526 s_2_3 + 2 g_0 + 0.4 g_1 - 2 g_2
                  - 0.125 g_3 - 2 g_4 >= -6.525
 _2_2_2_0_4#76:   7.08433333333333 gamma_2_3_0 - 7.08433333333333 s_2_3 + g_0
                  + 1.25 g_1 + 3 g_2 - 0.833333333333333 g_3 - g_4
                  >= -7.08333333333333
 _2_2_2_0_6#77:   12.251 gamma_2_3_0 - 12.251 s_2_3 + g_0 + 1.75 g_1 + 5 g_2
                  - 3.5 g_3 - g_4 >= -12.25
 _2_2_2_0_9#78:   7.501 gamma_2_3_0 - 7.501 s_2_3 - g_0 + g_1 + 4 g_2 - 0.5 g_3
                  + g_4 >= -7.5
 _2_2_2_0_11#79:  7.08433333333333 gamma_2_3_0 - 7.08433333333333 s_2_3 + g_0
                  + 1.25 g_1 + 3 g_2 - 0.833333333333333 g_3 - g_4
                  >= -7.08333333333333
 _2_2_2_1_0#80:   5.501 gamma_2_3_1 - 5.501 s_2_3 + 2 g_0 + 0.5 g_1 - g_3
                  - 2 g_4 >= -5.5
 _2_2_2_1_2#81:   12.976 gamma_2_3_1 - 12.976 s_2_3 + 3 g_0 - 0.6 g_1 - 6 g_2
                  + 0.375 g_3 - 3 g_4 >= -12.975
 _2_2_2_1_4#82:   5.58433333333333 gamma_2_3_1 - 5.58433333333333 s_2_3 + 2 g_0
                  + 0.25 g_1 - g_2 - 0.333333333333333 g_3 - 2 g_4
                  >= -5.58333333333333
 _2_2_2_1_6#83:   8.751 gamma_2_3_1 - 8.751 s_2_3 + 2 g_0 + 0.75 g_1 + g_2
                  - 3 g_3 - 2 g_4 >= -8.75
 _2_2_2_1_9#84:   5.58433333333333 gamma_2_3_1 - 5.58433333333333 s_2_3 + 2 g_0
                  + 0.25 g_1 - g_2 - 0.333333333333333 g_3 - 2 g_4
                  >= -5.58333333333333
 _2_2_2_2_0#85:   10.476 gamma_2_3_2 - 10.476 s_2_3 - g_0 + 1.1 g_1 + 6 g_2
                  - 1.375 g_3 + g_4 >= -10.475
 _2_2_2_2_3#86:   8.55933333333333 gamma_2_3_2 - 8.55933333333333 s_2_3 - g_0
                  + 0.85 g_1 + 5 g_2 - 0.708333333333333 g_3 + g_4
                  >= -8.55833333333333
 _2_2_2_2_5#87:   13.726 gamma_2_3_2 - 13.726 s_2_3 - g_0 + 1.35 g_1 + 7 g_2
                  - 3.375 g_3 + g_4 >= -13.725
 _2_2_2_2_7#88:   8.55933333333333 gamma_2_3_2 - 8.55933333333333 s_2_3 - g_0
                  + 0.85 g_1 + 5 g_2 - 0.708333333333333 g_3 + g_4
                  >= -8.55833333333333
 _2_2_3_0_0#89:   9.001 gamma_2_2_0 - 9.001 s_2_2 + g_0 + 1.5 g_1 + 4 g_2
                  - 1.5 g_3 - g_4 >= -9
 _2_2_3_0_2#90:   6.526 gamma_2_2_0 - 6.526 s_2_2 + 2 g_0 + 0.4 g_1 - 2 g_2
                  - 0.125 g_3 - 2 g_4 >= -6.525
 _2_2_3_0_4#91:   7.08433333333333 gamma_2_2_0 - 7.08433333333333 s_2_2 + g_0
                  + 1.25 g_1 + 3 g_2 - 0.833333333333333 g_3 - g_4
                  >= -7.08333333333333
 _2_2_3_0_6#92:   12.251 gamma_2_2_0 - 12.251 s_2_2 + g_0 + 1.75 g_1 + 5 g_2
                  - 3.5 g_3 - g_4 >= -12.25
 _2_2_3_0_9#93:   7.501 gamma_2_2_0 - 7.501 s_2_2 - g_0 + g_1 + 4 g_2 - 0.5 g_3
                  + g_4 >= -7.5
 _2_2_3_0_11#94:  7.08433333333333 gamma_2_2_0 - 7.08433333333333 s_2_2 + g_0
                  + 1.25 g_1 + 3 g_2 - 0.833333333333333 g_3 - g_4
                  >= -7.08333333333333
 _2_2_3_1_0#95:   10.476 gamma_2_2_1 - 10.476 s_2_2 - g_0 + 1.1 g_1 + 6 g_2
                  - 1.375 g_3 + g_4 >= -10.475
 _2_2_3_1_3#96:   8.55933333333333 gamma_2_2_1 - 8.55933333333333 s_2_2 - g_0
                  + 0.85 g_1 + 5 g_2 - 0.708333333333333 g_3 + g_4
                  >= -8.55833333333333
 _2_2_3_1_5#97:   13.726 gamma_2_2_1 - 13.726 s_2_2 - g_0 + 1.35 g_1 + 7 g_2
                  - 3.375 g_3 + g_4 >= -13.725
 _2_2_3_1_7#98:   12.976 gamma_2_2_1 - 12.976 s_2_2 - 3 g_0 + 0.6 g_1 + 6 g_2
                  - 0.375 g_3 + 3 g_4 >= -12.975
 _2_2_3_1_9#99:   8.55933333333333 gamma_2_2_1 - 8.55933333333333 s_2_2 - g_0
                  + 0.85 g_1 + 5 g_2 - 0.708333333333333 g_3 + g_4
                  >= -8.55833333333333
 _2_2_4_0_0#100:  10.476 gamma_2_1_0 - 10.476 s_2_1 - g_0 + 1.1 g_1 + 6 g_2
                  - 1.375 g_3 + g_4 >= -10.475
 _2_2_4_0_3#101:  8.55933333333333 gamma_2_1_0 - 8.55933333333333 s_2_1 - g_0
                  + 0.85 g_1 + 5 g_2 - 0.708333333333333 g_3 + g_4
                  >= -8.55833333333333
 _2_2_4_0_5#102:  13.726 gamma_2_1_0 - 13.726 s_2_1 - g_0 + 1.35 g_1 + 7 g_2
                  - 3.375 g_3 + g_4 >= -13.725
 _2_2_4_0_7#103:  6.526 gamma_2_1_0 - 6.526 s_2_1 - 2 g_0 - 0.4 g_1 + 2 g_2
                  + 0.125 g_3 + 2 g_4 >= -6.525
 _2_2_4_0_9#104:  12.976 gamma_2_1_0 - 12.976 s_2_1 - 3 g_0 + 0.6 g_1 + 6 g_2
                  - 0.375 g_3 + 3 g_4 >= -12.975
 _2_2_4_0_11#105: 8.55933333333333 gamma_2_1_0 - 8.55933333333333 s_2_1 - g_0
                  + 0.85 g_1 + 5 g_2 - 0.708333333333333 g_3 + g_4
                  >= -8.55833333333333
 _2_2_4_1_0#106:  5.501 gamma_2_1_1 - 5.501 s_2_1 + 2 g_0 + 0.5 g_1 - g_3
                  - 2 g_4 >= -5.5
 _2_2_4_1_2#107:  5.58433333333333 gamma_2_1_1 - 5.58433333333333 s_2_1 + 2 g_0
                  + 0.25 g_1 - g_2 - 0.333333333333333 g_3 - 2 g_4
                  >= -5.58333333333333
 _2_2_4_1_4#108:  8.751 gamma_2_1_1 - 8.751 s_2_1 + 2 g_0 + 0.75 g_1 + g_2
                  - 3 g_3 - 2 g_4 >= -8.75
 _2_2_4_1_6#109:  7.501 gamma_2_1_1 - 7.501 s_2_1 + g_0 - g_1 - 4 g_2 + 0.5 g_3
                  - g_4 >= -7.5
 _2_2_4_1_9#110:  5.58433333333333 gamma_2_1_1 - 5.58433333333333 s_2_1 + 2 g_0
                  + 0.25 g_1 - g_2 - 0.333333333333333 g_3 - 2 g_4
                  >= -5.58333333333333
 _2_2_5_0_0#111:  10.476 gamma_2_0_0 - 10.476 s_2_0 - g_0 + 1.1 g_1 + 6 g_2
                  - 1.375 g_3 + g_4 >= -10.475
 _2_2_5_0_3#112:  8.55933333333333 gamma_2_0_0 - 8.55933333333333 s_2_0 - g_0
                  + 0.85 g_1 + 5 g_2 - 0.708333333333333 g_3 + g_4
                  >= -8.55833333333333
 _2_2_5_0_5#113:  13.726 gamma_2_0_0 - 13.726 s_2_0 - g_0 + 1.35 g_1 + 7 g_2
                  - 3.375 g_3 + g_4 >= -13.725
 _2_2_5_0_7#114:  6.526 gamma_2_0_0 - 6.526 s_2_0 - 2 g_0 - 0.4 g_1 + 2 g_2
                  + 0.125 g_3 + 2 g_4 >= -6.525
 _2_2_5_0_9#115:  12.976 gamma_2_0_0 - 12.976 s_2_0 - 3 g_0 + 0.6 g_1 + 6 g_2
                  - 0.375 g_3 + 3 g_4 >= -12.975
 _2_2_5_0_11#116: 8.55933333333333 gamma_2_0_0 - 8.55933333333333 s_2_0 - g_0
                  + 0.85 g_1 + 5 g_2 - 0.708333333333333 g_3 + g_4
                  >= -8.55833333333333
 _2_2_5_1_0#117:  9.001 gamma_2_0_1 - 9.001 s_2_0 + g_0 + 1.5 g_1 + 4 g_2
                  - 1.5 g_3 - g_4 >= -9
 _2_2_5_1_2#118:  7.08433333333333 gamma_2_0_1 - 7.08433333333333 s_2_0 + g_0
                  + 1.25 g_1 + 3 g_2 - 0.833333333333333 g_3 - g_4
                  >= -7.08333333333333
 _2_2_5_1_4#119:  12.251 gamma_2_0_1 - 12.251 s_2_0 + g_0 + 1.75 g_1 + 5 g_2
                  - 3.5 g_3 - g_4 >= -12.25
 _2_2_5_1_7#120:  7.501 gamma_2_0_1 - 7.501 s_2_0 - g_0 + g_1 + 4 g_2 - 0.5 g_3
                  + g_4 >= -7.5
 _2_2_5_1_9#121:  7.08433333333333 gamma_2_0_1 - 7.08433333333333 s_2_0 + g_0
                  + 1.25 g_1 + 3 g_2 - 0.833333333333333 g_3 - g_4
                  >= -7.08333333333333
 c123#122:        a_0 - g_0 >= 0
 c124#123:        a_0 + g_0 >= 0
 c125#124:        a_1 - g_1 >= 0
 c126#125:        a_1 + g_1 >= 0
 c127#126:        a_2 - g_2 >= 0
 c128#127:        a_2 + g_2 >= 0
 c129#128:        a_3 - g_3 >= 0
 c130#129:        a_3 + g_3 >= 0
 c131#130:        a_4 - g_4 >= 0
 c132#131:        a_4 + g_4 >= 0
Bounds
 0 <= gamma_1_5_0 <= 1
 0 <= gamma_1_5_1 <= 1
 0 <= gamma_1_5_2 <= 1
 0 <= gamma_1_4_0 <= 1
 0 <= gamma_1_4_1 <= 1
 0 <= gamma_1_4_2 <= 1
 0 <= gamma_1_3_0 <= 1
 0 <= gamma_1_3_1 <= 1
 0 <= gamma_1_3_2 <= 1
 0 <= gamma_1_2_0 <= 1
 0 <= gamma_1_2_1 <= 1
 0 <= gamma_1_2_2 <= 1
 0 <= gamma_1_1_0 <= 1
 0 <= gamma_1_1_1 <= 1
 0 <= gamma_1_1_2 <= 1
 0 <= gamma_1_0_0 <= 1
 0 <= gamma_1_0_1 <= 1
 0 <= gamma_1_0_2 <= 1
 0 <= gamma_0_1_0 <= 1
 0 <= gamma_0_1_1 <= 1
 0 <= gamma_0_0_0 <= 1
 0 <= gamma_0_0_1 <= 1
 0 <= gamma_2_5_0 <= 1
 0 <= gamma_2_5_1 <= 1
 0 <= gamma_2_5_2 <= 1
 0 <= gamma_2_4_0 <= 1
 0 <= gamma_2_4_1 <= 1
 0 <= gamma_2_4_2 <= 1
 0 <= gamma_2_3_0 <= 1
 0 <= gamma_2_3_1 <= 1
 0 <= gamma_2_3_2 <= 1
 0 <= gamma_2_2_0 <= 1
 0 <= gamma_2_2_1 <= 1
 0 <= gamma_2_2_2 <= 1
 0 <= gamma_2_1_0 <= 1
 0 <= gamma_2_1_1 <= 1
 0 <= gamma_2_1_2 <= 1
 0 <= gamma_2_0_0 <= 1
 0 <= gamma_2_0_1 <= 1
 0 <= gamma_2_0_2 <= 1
 0 <= a_0 <= 1
 0 <= a_1 <= 1
 0 <= a_2 <= 1
 0 <= a_3 <= 1
 0 <= a_4 <= 1
 0 <= s_1_5 <= 1
 0 <= s_1_4 <= 1
 0 <= s_1_3 <= 1
 0 <= s_1_2 <= 1
 0 <= s_1_1 <= 1
 0 <= s_1_0 <= 1
 0 <= s_0_1 <= 1
 0 <= s_0_0 <= 1
 0 <= s_2_5 <= 1
 0 <= s_2_4 <= 1
 0 <= s_2_3 <= 1
 0 <= s_2_2 <= 1
 0 <= s_2_1 <= 1
 0 <= s_2_0 <= 1
-1 <= g_0 <= 1
-1 <= g_1 <= 1
-1 <= g_2 <= 1
-1 <= g_3 <= 1
-1 <= g_4 <= 1
Generals
 gamma_1_5_0  gamma_1_5_1  gamma_1_5_2  gamma_1_4_0  gamma_1_4_1  gamma_1_4_2 
 gamma_1_3_0  gamma_1_3_1  gamma_1_3_2  gamma_1_2_0  gamma_1_2_1  gamma_1_2_2 
 gamma_1_1_0  gamma_1_1_1  gamma_1_1_2  gamma_1_0_0  gamma_1_0_1  gamma_1_0_2 
 gamma_0_1_0  gamma_0_1_1  gamma_0_0_0  gamma_0_0_1  gamma_2_5_0  gamma_2_5_1 
 gamma_2_5_2  gamma_2_4_0  gamma_2_4_1  gamma_2_4_2  gamma_2_3_0  gamma_2_3_1 
 gamma_2_3_2  gamma_2_2_0  gamma_2_2_1  gamma_2_2_2  gamma_2_1_0  gamma_2_1_1 
 gamma_2_1_2  gamma_2_0_0  gamma_2_0_1  gamma_2_0_2  a_0  a_1  a_2  a_3  a_4 
 s_1_5  s_1_4  s_1_3  s_1_2  s_1_1  s_1_0  s_0_1  s_0_0  s_2_5  s_2_4  s_2_3 
 s_2_2  s_2_1  s_2_0 
End
